db/data/196242115121732319416345276161654715494.z3.out
sat
-------------------
11.015052113
